FEATURES = {secureStorage,industryAppsIntegration,versionHistory,unlimitedExternalCollaborators,boxApi,granularSharedPermissions,accessControls,microsoft365Integration,googleWorkspaceIntegration,slackIntegration,desktopAccess,mobileAccess,sslEncryption,atRestEncryption,twoFactorAuthentication,standardBusinessSupport,userManagement,dataLossProtection,advancedSecurityReporting,advancedUserReporting,singleSignOn,activeDirectoryIntegration,customBranding,mobileSecurityControls,advancedAdmin,advancedControls,fullContentVisibility,fullContentManagement,userActivityTracking,adminRoleDelegation,metadata,customTemplates,customTermsOfService,pciDssCompliance,boxGovernance,boxZones,boxKeySafe,boxShield,relayLite,hipaaCompliance,hitechCompliance,fedrampCompliance,deviceTrust,passwordPolicyEnforcement,documentWatermark};
USAGE_LIMITS = {uploadSizeLimit,industryAppsIntegrationLimit,versionHistoryThreshold,minUsers,apiCallsLimit,includedDocumentsFor3rdPartyAndCustomApps};
PLANS = {BUSINESS,BUSINESS_PLUS,ENTERPRISE,ENTERPRISE_PLUS};
ADDONS = {};

plans_prices = [15.0,25.0,35.0,inf];
addons_prices = [];

plans_features = array2d(PLANS, FEATURES, [
    % BUSINESS
    1,1,1,0,1,1,1,1,1,0,1,1,1,1,1,1,1,1,1,1,1,1,1,0,0,0,0,0,0,0,0,0,0,0,0,0,0,0,0,0,0,0,0,0,0,
    % BUSINESS_PLUS
    1,1,1,1,1,1,1,1,1,0,1,1,1,1,1,1,1,1,1,1,1,1,1,1,1,1,1,1,1,1,0,1,1,1,1,1,1,1,0,0,0,0,0,0,0,
    % ENTERPRISE
    1,1,1,1,1,1,1,1,1,0,1,1,1,1,1,1,1,1,1,1,1,1,1,1,1,1,1,1,1,1,1,1,1,1,1,1,1,1,1,1,1,1,1,1,1,
    % ENTERPRISE_PLUS
    1,1,1,1,1,1,1,1,1,0,1,1,1,1,1,1,1,1,1,1,1,1,1,1,1,1,1,1,1,1,1,1,1,1,1,1,1,1,1,1,1,1,1,1,1,
]);
plans_usage_limits = array2d(PLANS, USAGE_LIMITS, [
    % BUSINESS
    5,1,50,3,50000,100,
    % BUSINESS_PLUS
    15,10,50,3,50000,100,
    % ENTERPRISE
    50,inf,100,3,100000,250,
    % ENTERPRISE_PLUS
    150,inf,inf,3,100000,1000
]);

linked_features = array2d(USAGE_LIMITS, FEATURES, [
    % uploadSizeLimit
    1,0,0,0,0,0,0,0,0,0,0,0,0,0,0,0,0,0,0,0,0,0,0,0,0,0,0,0,0,0,0,0,0,0,0,0,0,0,0,0,0,0,0,0,0,
    % industryAppsIntegrationLimit
    0,1,0,0,0,0,0,1,1,1,0,0,0,0,0,0,0,0,0,0,0,0,0,0,0,0,0,0,0,0,0,0,0,0,0,0,0,0,0,0,0,0,0,0,0,
    % versionHistoryThreshold
    0,0,1,0,0,0,0,0,0,0,0,0,0,0,0,0,0,0,0,0,0,0,0,0,0,0,0,0,0,0,0,0,0,0,0,0,0,0,0,0,0,0,0,0,0,
    % minUsers
    0,0,0,0,0,0,0,0,0,0,0,0,0,0,0,0,0,0,0,0,0,0,0,0,0,0,0,0,0,0,0,0,0,0,0,0,0,0,0,0,0,0,0,0,0,
    % apiCallsLimit
    0,0,0,0,1,0,0,0,0,0,0,0,0,0,0,0,0,0,0,0,0,0,0,0,0,0,0,0,0,0,0,0,0,0,0,0,0,0,0,0,0,0,0,0,0,
    % includedDocumentsFor3rdPartyAndCustomApps
    0,1,0,0,0,0,0,1,1,1,0,0,0,0,0,0,0,0,0,0,0,0,0,0,0,0,0,0,0,0,0,0,0,0,0,0,0,0,0,0,0,0,0,0,0,
]);

addons_features = array2d(ADDONS, FEATURES, [
]);
addons_usage_limits = array2d(ADDONS, USAGE_LIMITS, [
]);
addons_usage_limits_extensions = array2d(ADDONS, USAGE_LIMITS, [
]);
addons_available_for = array2d(ADDONS, PLANS, [
]);

addons_depends_on = array2d(ADDONS, ADDONS, [
]);